# from to (dense indices; see the nodes sidecar for identities)
0 1
1 2
2 3
3 4
4 5
3 6
3 7
3 8
3 9
3 10
3 11
2 12
1 13
13 14
14 15
14 16
14 17
13 18
1 19
19 20
20 21
19 22
1 23
23 24
24 25
23 26
26 27
26 28
26 29
26 30
26 31
23 32
1 33
33 34
34 35
34 36
34 37
33 38
1 39
39 40
40 41
40 42
40 43
40 44
44 45
44 46
44 47
44 48
44 49
44 50
44 51
44 52
40 53
40 54
39 55
1 56
56 57
57 58
57 59
56 60
1 61
61 62
62 63
61 64
1 65
65 66
66 67
65 68
1 69
69 70
70 71
70 72
70 73
70 74
70 75
69 76
76 77
76 78
78 79
76 80
76 81
76 82
69 83
1 84
84 85
85 86
85 87
85 88
85 89
84 90
1 91
91 92
92 93
91 94
1 95
95 96
96 97
96 98
96 99
96 100
96 101
95 102
0 103
0 104
0 105
0 106
0 107
0 108
108 109
108 110
0 111
111 112
111 113
111 114
0 115
0 116
5 117
6 118
6 119
6 120
6 121
6 122
6 123
6 124
6 125
6 126
6 127
6 128
6 129
6 130
6 131
6 132
6 133
119 120
124 118
124 122
124 121
126 118
126 119
126 121
127 118
127 119
127 122
127 121
128 118
128 119
130 118
131 118
131 129
131 130
132 118
132 119
132 122
132 129
132 130
133 118
133 119
133 122
133 121
133 129
133 130
7 10
7 9
7 11
7 8
7 6
7 134
7 135
7 136
7 137
7 138
7 139
7 140
7 141
7 142
7 143
7 144
7 145
7 146
7 147
135 137
135 140
135 136
135 139
135 138
136 138
137 138
138 134
141 137
142 137
143 137
144 135
145 140
146 139
147 139
8 148
8 149
8 150
8 151
8 152
8 153
8 154
8 155
8 156
8 157
8 158
8 159
8 160
153 148
154 148
155 148
156 148
157 148
158 148
159 148
160 148
9 161
9 162
9 163
9 164
9 165
9 166
9 167
9 168
9 169
9 170
9 171
9 172
9 173
9 174
9 175
9 176
9 177
9 178
9 179
9 180
9 181
9 182
9 183
9 184
9 185
9 186
163 164
167 162
168 162
168 164
169 161
170 164
171 164
172 164
173 164
174 164
175 162
175 164
176 162
176 164
177 162
177 164
178 162
178 164
179 162
179 164
180 164
181 164
182 164
183 166
183 164
184 162
184 161
184 164
185 186
10 7
10 8
10 187
10 188
10 189
10 190
10 191
10 192
10 193
10 194
10 195
10 196
10 197
10 198
10 199
10 200
10 201
10 202
10 203
10 204
10 205
10 206
10 207
10 208
10 209
10 210
10 211
10 212
10 213
10 214
10 215
10 216
10 217
10 218
10 219
10 220
10 221
10 222
10 223
10 224
10 225
10 226
10 227
10 228
10 229
10 230
10 231
10 232
10 233
10 234
10 235
10 236
10 237
10 238
10 239
10 240
10 241
10 242
10 243
10 244
10 245
10 246
10 247
10 248
10 249
188 187
197 196
197 195
197 201
197 198
200 201
205 189
210 191
210 198
214 190
215 192
215 201
217 193
217 201
218 194
218 201
218 199
220 187
220 201
222 200
222 201
222 197
228 188
228 201
229 230
230 188
230 201
231 188
231 201
232 230
233 230
234 230
235 230
236 190
236 230
237 190
237 230
238 191
238 230
239 196
239 197
240 230
241 197
242 230
243 230
244 199
245 230
245 217
246 230
246 218
247 197
248 230
249 230
249 221
11 250
11 251
11 252
11 253
11 254
11 255
11 256
11 257
11 258
11 259
11 260
11 261
11 262
11 263
11 264
11 265
11 266
11 267
11 268
11 269
11 270
11 271
11 272
11 273
254 250
256 255
259 258
260 250
260 254
260 257
260 253
260 251
260 259
262 250
262 252
262 261
262 251
263 250
263 261
263 251
264 250
264 252
264 261
264 251
265 261
265 253
266 261
266 253
267 257
268 261
268 253
268 260
269 257
270 261
270 255
270 260
271 261
271 253
271 260
272 261
272 260
273 261
273 260
15 16
15 17
15 274
15 275
15 276
15 277
15 278
15 279
15 280
15 281
15 282
15 283
15 284
15 285
15 286
15 287
15 288
15 289
15 290
15 291
15 292
15 293
15 294
15 295
15 296
15 297
15 298
15 299
15 300
15 301
15 302
15 303
15 304
276 275
277 275
277 276
279 278
280 278
280 276
282 274
282 275
282 281
283 282
283 275
283 276
284 278
284 274
286 284
286 278
286 274
287 284
287 282
287 274
288 287
289 282
289 283
289 291
290 284
291 282
293 284
294 284
297 283
299 287
300 284
300 278
300 287
300 282
300 275
300 283
301 287
301 282
301 275
301 283
301 295
302 284
302 278
302 290
302 296
302 283
302 300
303 294
303 293
303 300
304 287
304 295
304 293
304 300
16 15
16 305
16 306
16 307
16 308
16 309
16 310
16 311
16 312
16 313
16 314
16 315
308 305
308 307
309 310
311 305
311 307
313 305
313 312
313 311
314 309
315 305
315 312
315 308
17 15
17 316
17 317
17 318
17 319
17 320
17 321
17 322
17 323
17 324
17 325
17 326
17 327
17 328
17 329
17 330
17 331
17 332
17 333
318 316
318 319
319 316
321 316
321 319
323 322
326 322
326 323
326 316
326 325
326 324
326 319
328 327
328 317
329 327
329 317
330 316
330 327
330 318
331 316
331 327
331 318
332 327
332 321
333 327
333 326
21 334
21 335
21 336
21 337
21 338
21 339
21 340
21 341
21 342
21 343
21 344
21 345
21 346
21 347
21 348
21 349
336 334
336 337
336 346
336 348
336 347
336 345
337 334
337 346
338 348
338 347
340 349
344 346
344 347
347 346
347 345
348 346
348 345
27 350
27 351
27 352
27 353
27 354
27 355
27 356
27 357
27 358
27 359
27 360
27 361
27 362
27 363
27 364
27 365
27 366
27 367
27 368
27 369
27 370
27 371
27 372
27 373
27 374
27 375
27 376
27 377
27 378
27 379
27 380
27 381
27 382
27 383
27 384
27 385
27 386
27 387
356 350
372 351
372 352
373 351
373 352
374 350
375 351
375 352
375 356
376 351
376 352
377 351
377 352
378 351
378 352
379 351
379 352
380 351
380 352
381 351
381 352
382 351
382 352
383 351
383 352
384 351
384 352
385 351
385 352
386 351
386 352
387 351
387 352
387 355
28 27
28 29
28 31
28 30
29 30
29 388
29 389
29 390
29 391
29 392
29 393
29 394
392 388
392 390
393 388
393 391
394 388
394 391
394 390
30 28
30 395
30 396
30 397
30 398
30 399
30 400
30 401
30 402
30 403
30 404
30 405
30 406
30 407
30 408
30 409
30 410
30 411
30 412
30 413
30 414
30 415
30 416
30 417
397 406
397 408
397 400
397 407
403 408
408 395
409 397
410 406
411 406
412 406
413 396
413 400
414 396
414 400
416 395
31 30
31 418
31 419
31 420
31 421
31 422
31 423
31 424
31 425
31 426
421 419
423 418
423 421
424 418
424 422
425 418
425 422
426 418
426 422
35 36
35 37
36 35
36 427
36 428
36 429
36 430
36 431
36 432
36 433
36 434
36 435
36 436
36 437
36 438
36 439
36 440
36 441
430 428
430 429
430 434
435 427
435 428
436 427
436 429
437 427
437 433
439 434
440 427
440 430
441 427
441 430
37 442
37 443
37 444
37 445
37 446
37 447
37 448
37 449
443 444
444 443
446 445
447 445
448 442
448 445
448 446
449 442
449 445
449 443
41 54
41 450
41 451
41 452
41 453
41 454
41 455
41 456
41 457
41 458
41 459
41 460
41 461
41 462
41 463
41 464
41 465
41 466
41 467
41 468
41 469
41 470
41 471
41 472
41 473
41 474
41 475
41 476
41 477
41 478
41 479
41 480
41 481
41 482
41 483
41 484
41 485
41 486
41 487
41 488
41 489
41 490
41 491
41 492
453 450
453 454
453 452
454 450
454 458
454 455
455 456
456 457
458 450
458 459
458 474
458 470
458 475
458 466
458 452
458 468
459 462
459 461
459 479
459 452
459 460
460 463
462 463
462 465
463 464
463 465
464 465
468 469
468 477
468 478
469 467
470 473
470 472
472 471
472 476
472 477
472 452
472 478
473 477
473 478
479 450
480 450
481 451
481 480
481 452
482 451
482 479
482 452
483 451
483 480
483 452
484 451
484 480
484 452
485 451
485 480
485 452
486 451
486 480
486 452
487 451
487 480
487 452
488 451
488 480
488 452
489 451
489 480
489 452
490 451
490 480
490 452
491 451
491 480
491 452
492 451
492 453
492 452
42 53
42 54
42 43
42 41
42 493
42 494
42 495
42 496
42 497
42 498
42 499
42 500
42 501
42 502
42 503
42 504
42 505
42 506
496 498
496 497
496 494
496 495
496 493
498 499
500 501
502 496
502 500
503 496
503 500
504 496
504 500
505 496
505 500
506 496
506 500
43 507
43 508
43 509
43 510
43 511
43 512
508 507
45 42
45 43
45 513
45 514
45 515
45 516
45 517
513 514
515 513
515 514
516 513
516 514
517 513
517 514
46 53
46 43
46 518
46 519
46 520
46 521
46 522
46 523
46 524
46 525
46 526
46 527
518 519
518 522
518 521
518 523
518 520
524 518
524 523
525 518
525 523
526 518
526 523
527 518
527 523
47 43
47 528
47 529
47 530
47 531
47 532
47 533
528 529
528 530
529 530
531 528
531 530
532 528
532 530
533 528
533 530
48 53
48 43
48 534
48 535
48 536
48 537
48 538
48 539
534 535
536 534
536 535
537 534
537 535
538 534
538 535
539 534
539 535
49 42
49 43
49 540
49 541
49 542
49 543
49 544
540 541
542 540
542 541
543 540
543 541
544 540
544 541
50 53
50 43
50 545
50 546
50 547
50 548
50 549
50 550
50 551
50 552
50 553
50 554
50 555
50 556
546 545
546 550
546 551
546 547
547 549
547 548
548 549
552 546
552 551
553 546
553 551
554 546
554 551
555 546
555 551
556 546
556 551
51 53
51 43
51 557
51 558
51 559
51 560
51 561
51 562
51 563
51 564
51 565
51 566
51 567
51 568
51 569
51 570
51 571
557 562
557 558
557 559
557 565
557 560
558 564
559 563
559 565
560 565
560 561
566 557
566 565
567 557
567 565
568 557
568 565
569 557
569 565
570 557
570 565
571 557
571 565
52 53
52 43
52 572
52 573
52 574
52 575
52 576
52 577
52 578
52 579
52 580
572 573
572 574
572 575
573 575
574 575
576 572
576 575
577 572
577 575
578 572
578 575
579 572
579 575
580 572
580 575
53 581
53 582
53 583
53 584
53 585
584 582
585 583
54 42
54 43
54 586
54 587
54 588
54 589
54 590
54 591
54 592
54 593
54 594
54 595
54 596
54 597
54 598
54 599
54 600
54 601
54 602
54 603
54 604
54 605
54 606
54 607
588 587
589 586
589 588
590 604
590 589
591 589
592 589
593 589
594 589
595 589
596 589
597 589
598 589
599 589
600 589
604 587
604 601
604 589
604 602
604 588
604 605
604 603
604 596
604 597
604 600
604 598
604 592
604 599
604 595
604 591
604 593
604 594
605 587
605 601
605 588
606 604
607 590
58 608
58 609
58 610
58 611
58 612
58 613
58 614
58 615
58 616
58 617
58 618
58 619
58 620
58 621
58 622
58 623
58 624
58 625
58 626
58 627
58 628
58 629
58 630
58 631
58 632
58 633
58 634
58 635
58 636
610 609
612 608
613 622
615 618
615 620
615 621
615 617
615 619
616 618
616 617
623 609
623 610
624 609
624 623
626 623
627 611
627 623
628 623
629 630
629 624
629 610
629 625
629 623
630 610
631 624
631 625
631 623
632 624
632 625
632 623
633 624
633 625
633 623
634 624
634 623
635 624
635 623
636 623
59 58
59 637
59 638
638 637
63 639
63 640
63 641
63 642
63 643
63 644
63 645
63 646
644 639
645 639
646 639
646 640
67 647
67 648
67 649
67 650
67 651
67 652
67 653
67 654
67 655
67 656
67 657
67 658
67 659
67 660
67 661
67 662
67 663
67 664
67 665
67 666
67 667
67 668
67 669
67 670
67 671
67 672
67 673
67 674
67 675
67 676
67 677
648 649
649 650
649 653
649 654
649 651
650 647
651 647
651 652
653 647
654 655
655 656
656 657
658 648
658 649
658 655
658 667
658 659
658 669
658 668
659 656
659 657
659 663
659 662
659 660
660 661
661 647
661 664
661 665
662 647
662 664
662 665
663 666
665 666
667 650
668 651
668 652
668 671
668 672
668 670
669 653
669 672
674 673
675 663
675 662
675 660
675 674
676 662
676 674
677 662
677 674
77 82
77 81
77 80
77 678
79 77
79 679
79 680
79 681
79 682
79 683
79 684
79 685
79 686
79 687
79 688
79 689
79 690
79 691
79 692
79 693
79 694
79 695
79 696
79 697
79 698
79 699
685 681
685 679
686 682
686 681
686 679
687 681
687 679
688 679
689 684
689 681
689 679
689 680
690 681
690 679
690 680
691 683
691 681
691 679
691 680
692 681
692 679
693 684
693 681
693 679
693 680
694 679
695 684
695 679
695 680
696 684
696 679
696 680
697 698
697 699
80 700
80 701
80 702
80 703
80 704
80 705
80 706
80 707
80 708
80 709
80 710
80 711
80 712
80 713
80 714
80 715
80 716
80 717
80 718
80 719
80 720
80 721
80 722
703 702
706 702
706 703
706 701
706 700
706 704
706 708
706 709
707 703
707 704
707 706
707 709
709 704
710 705
710 706
710 711
713 712
713 710
714 712
714 710
715 712
715 710
716 710
717 710
718 710
719 720
719 705
719 721
719 706
719 712
722 710
81 77
81 723
81 724
81 725
81 726
81 727
81 728
81 729
81 730
81 731
81 732
81 733
81 734
81 735
81 736
81 737
81 738
81 739
81 740
81 741
81 742
81 743
81 744
81 745
81 746
81 747
81 748
81 749
81 750
81 751
81 752
81 753
81 754
727 724
727 733
728 724
728 725
730 734
734 723
735 724
736 723
736 734
737 734
738 734
739 724
739 725
740 724
740 725
741 724
743 726
743 725
746 742
746 754
746 744
746 743
747 754
747 745
747 744
747 743
747 734
748 749
748 745
748 744
748 743
750 742
750 754
750 744
750 743
751 742
751 754
751 744
751 743
752 743
753 754
753 744
753 743
82 80
82 77
82 79
82 755
82 756
82 757
82 758
82 759
82 760
82 761
82 762
82 763
82 764
82 765
82 766
82 767
82 768
82 769
82 770
82 771
82 772
82 773
82 774
82 775
82 776
82 777
82 778
82 779
82 780
82 781
82 782
82 783
82 784
82 785
82 786
82 787
82 788
82 789
82 790
82 791
82 792
82 793
82 794
82 795
82 796
759 755
759 757
760 756
760 769
761 755
761 757
766 762
766 755
766 758
766 763
766 770
766 765
766 787
766 780
767 755
767 763
767 780
768 755
768 756
772 758
772 764
774 773
774 758
774 764
774 771
774 787
775 782
776 762
776 781
777 781
779 756
779 771
779 769
782 781
783 755
783 784
787 758
787 786
787 759
787 788
790 789
790 785
790 783
790 787
791 787
792 789
792 785
792 783
792 787
793 794
793 758
793 795
793 759
793 787
793 788
796 787
86 87
86 797
86 798
86 799
86 800
86 801
86 802
86 803
86 804
86 805
86 806
86 807
86 808
86 809
86 810
86 811
798 797
799 800
800 803
800 801
801 802
804 797
805 797
806 797
807 797
808 797
809 801
810 803
811 803
87 86
87 89
87 88
87 812
87 813
87 814
87 815
87 816
87 817
87 818
87 819
87 820
87 821
87 822
87 823
87 824
87 825
87 826
87 827
815 813
815 823
818 817
819 817
820 817
821 817
822 814
822 813
822 812
822 821
825 813
825 812
826 814
826 813
826 815
827 814
827 813
827 815
827 816
88 87
88 828
88 829
88 830
88 831
88 832
88 833
88 834
829 828
830 828
831 828
832 828
89 87
89 835
89 836
89 837
89 838
89 839
89 840
89 841
89 842
89 843
89 844
89 845
837 835
839 836
840 835
840 836
840 839
840 837
841 835
841 836
841 839
841 837
842 835
842 836
842 839
842 837
843 835
843 838
843 836
843 837
844 835
844 838
844 836
844 839
844 837
845 835
845 836
845 839
845 837
93 846
93 847
93 848
93 849
93 850
93 851
93 852
93 853
93 854
93 855
93 856
93 857
93 858
93 859
93 860
93 861
93 862
93 863
93 864
93 865
93 866
93 867
93 868
93 869
93 870
93 871
93 872
93 873
93 874
93 875
93 876
93 877
93 878
93 879
93 880
93 881
93 882
93 883
93 884
93 885
93 886
93 887
93 888
93 889
93 890
93 891
93 892
93 893
93 894
93 895
93 896
93 897
93 898
93 899
93 900
93 901
93 902
849 846
852 847
861 853
861 860
862 852
862 849
874 873
875 853
875 863
875 862
875 852
875 867
875 870
875 869
875 865
875 866
875 868
875 872
875 871
875 873
875 864
875 847
875 877
875 876
875 858
875 854
875 892
875 874
876 851
876 863
876 850
876 849
876 854
876 892
876 878
877 863
877 873
877 892
879 865
879 864
880 853
880 852
881 853
881 852
881 857
882 853
882 852
883 853
883 852
883 856
883 855
884 853
884 852
885 853
885 852
885 861
885 859
886 852
886 861
887 852
887 861
888 853
888 852
889 852
890 863
890 847
891 863
891 862
891 852
891 849
891 847
891 875
892 847
893 892
893 878
894 892
894 878
895 892
895 878
896 892
896 878
897 863
897 852
897 847
897 891
898 852
898 847
898 891
899 864
899 879
899 847
900 865
900 879
900 847
901 879
901 847
902 879
902 847
97 99
97 100
97 98
97 101
97 903
97 904
97 905
97 906
97 907
97 908
97 909
97 910
97 911
97 912
97 913
97 914
97 915
907 904
908 904
909 903
911 907
911 910
912 905
912 907
912 910
912 909
913 905
914 905
914 906
914 907
915 905
915 906
915 908
98 916
98 917
98 918
98 919
98 920
98 921
98 922
98 923
98 924
98 925
98 926
98 927
98 928
98 929
98 930
98 931
98 932
98 933
98 934
98 935
98 936
98 937
98 938
98 939
98 940
98 941
98 942
98 943
98 944
98 945
98 946
98 947
98 948
919 918
922 920
922 921
923 920
924 918
925 918
925 920
925 917
925 916
925 931
925 923
926 924
926 929
926 922
934 923
934 922
934 930
935 919
935 926
935 927
936 919
936 926
937 919
937 926
937 928
938 919
938 926
938 933
939 919
939 926
939 933
940 919
940 926
940 933
941 916
941 919
941 926
941 933
942 919
942 932
942 926
942 933
943 919
943 932
943 926
943 933
944 916
944 919
944 926
944 933
945 919
945 926
946 919
946 926
947 919
947 926
948 918
99 98
99 97
99 100
99 949
99 950
99 951
99 952
99 953
99 954
99 955
99 956
99 957
99 958
99 959
953 949
953 951
954 949
955 949
955 950
956 949
956 950
957 949
957 950
958 949
958 950
959 949
959 950
100 97
100 960
100 961
100 962
100 963
100 964
100 965
100 966
100 967
100 968
100 969
100 970
100 971
100 972
100 973
963 960
964 960
964 961
965 963
966 963
967 963
968 963
969 963
970 963
971 963
972 963
973 963
101 97
101 974
101 975
101 976
101 977
101 978
101 979
101 980
101 981
977 974
977 975
978 974
979 974
980 974
981 974
104 982
104 110
104 109
104 983
104 984
104 985
104 986
104 987
104 988
104 989
104 990
104 991
104 992
104 993
104 994
104 115
104 103
113 995
